# Data section
data;

set ParkingLots := p1 p2 p3 p4 p5;
set WaitingCars := Car1 Car2 Car3 Car4 Car5 Car6;

param :
        maxCarCapacity :=
    p1     25
    p2     25
    p3     25
    p4     25
    p5     25;

param :
        initNumOfCar :=
    p1     4
    p2     4
    p3     4
    p4     5
    p5     4;